120
1000
199
199
199
199
199
199
199
198
198
198
198
198
196
196
196
195
195
195
195
194
194
193
193
193
192
191
191
190
189
189
189
188
187
186
186
186
186
186
185
185
185
184
184
184
184
183
183
183
183
181
180
179
179
178
178
177
176
175
175
174
174
173
173
171
171
171
171
170
170
169
169
168
168
168
168
167
167
166
165
165
165
164
164
163
163
163
163
163
162
162
162
162
161
161
161
160
160
160
159
159
159
158
158
158
158
157
157
157
155
155
154
154
154
153
153
153
152
152
151
151
